p cnf 628 638
a 1 2 3 4 5 6 7 8 9 10 11 12 13 14 15 16 17 18 19 20 21 22 23 24 25 26 27 28 29 30 31 32 33 34 35 36 37 38 39 40 41 42 43 44 45 46 47 48 49 50 51 52 53 54 55 56 57 58 59 60 61 62 63 64 65 66 67 68 69 70 71 72 73 74 75 76 77 0
d 353 37 0
d 354 38 39 40 41 42 43 44 45 46 47 48 49 50 51 52 53 54 55 56 57 58 0
d 355 38 39 40 41 42 43 44 45 46 47 48 49 50 51 52 53 54 55 56 57 58 0
d 356 38 39 40 41 42 43 44 45 46 47 48 49 50 51 52 53 54 55 56 57 58 0
d 357 38 39 40 41 42 43 44 45 46 47 48 49 50 51 52 53 54 55 56 57 58 0
d 358 38 39 40 41 42 43 44 45 46 47 48 49 50 51 52 53 54 55 56 57 58 0
d 359 38 39 40 41 42 43 44 45 46 47 48 49 50 51 52 53 54 55 56 57 58 0
d 360 38 39 40 41 42 43 44 45 46 47 48 49 50 51 52 53 54 55 56 57 58 0
d 361 38 39 40 41 42 43 44 45 46 47 48 49 50 51 52 53 54 55 56 57 58 0
d 362 38 39 40 41 42 43 44 45 46 47 48 49 50 51 52 53 54 55 56 57 58 0
d 363 38 39 40 41 42 43 44 45 46 47 48 49 50 51 52 53 54 55 56 57 58 0
d 364 38 39 40 41 42 43 44 45 46 47 48 49 50 51 52 53 54 55 56 57 58 0
d 365 38 39 40 41 42 43 44 45 46 47 48 49 50 51 52 53 54 55 56 57 58 0
d 366 59 60 61 62 63 64 65 66 67 68 69 70 71 72 73 74 75 76 77 0
d 367 59 60 61 62 63 64 65 66 67 68 69 70 71 72 73 74 75 76 77 0
d 368 59 60 61 62 63 64 65 66 67 68 69 70 71 72 73 74 75 76 77 0
e 82 85 88 91 94 105 113 120 127 150 151 155 157 158 162 166 169 171 181 190 199 208 217 226 240 249 255 266 275 283 291 299 307 315 323 333 351 408 417 425 433 441 447 455 463 486 587 588 589 590 591 592 593 594 595 596 597 598 599 600 601 602 603 604 605 606 607 608 609 610 611 612 613 614 615 616 617 618 619 620 621 622 623 624 625 626 0
34 105 -166 0
1 -2 -105 0
-4 -82 0
6 -82 0
-8 -85 0
10 -85 0
-12 -88 0
14 -88 0
-16 -91 0
18 -91 0
-20 -94 0
22 -94 0
-24 -105 150 0
-28 -105 157 0
-32 -105 166 0
32 -34 -105 0
1 -2 39 -590 0
-82 -105 0
-85 -105 0
-88 -105 0
-91 -105 0
-94 -105 0
24 -26 151 0
28 -30 158 0
32 -34 166 0
34 -105 166 0
-2 3 -105 113 0
32 -34 -333 -356 367 408 -587 0
32 -34 36 -266 -356 408 -587 0
-15 22 91 105 113 120 127 155 162 169 171 0
-1 105 -181 0
-34 36 -105 -333 -356 408 -587 0
-3 -113 0
-34 -105 -333 -356 367 408 -587 0
-34 36 -105 -266 -356 408 -587 0
2 -113 0
-6 7 -105 120 0
82 105 -190 0
7 -82 120 0
-63 82 105 -614 0
6 42 -593 0
-10 11 -105 127 0
85 105 -199 0
11 -85 127 0
10 44 -595 0
65 85 105 -616 0
14 -23 91 105 113 120 127 155 162 169 171 0
88 105 -208 0
15 17 -88 208 0
14 46 -597 0
-14 15 -46 -597 0
17 -67 -88 -618 0
22 88 91 105 113 120 127 155 162 169 171 0
-18 19 -105 -171 0
91 105 -217 0
19 -91 -171 0
18 48 -599 0
-18 19 -48 -599 0
14 18 22 113 120 127 155 162 169 171 0
19 21 -91 217 0
-19 171 -217 0
-22 23 -105 -171 0
94 105 -226 0
23 -94 -171 0
22 50 -601 0
-22 23 -50 -601 0
23 25 -94 226 0
25 -94 -171 226 0
105 -150 0
-24 -151 0
-105 -151 0
-1 -24 -28 -32 82 85 88 91 94 105 0
-51 -150 -602 0
150 151 -155 0
26 52 -603 0
-51 -151 -602 0
105 -157 0
-28 -158 0
-105 -158 0
-1 -24 -28 34 82 85 88 91 94 105 0
-53 -157 -604 0
157 158 -162 0
30 54 -605 0
-53 -158 -604 0
2 -24 30 -32 82 85 88 91 94 105 0
-32 105 -166 0
-1 -24 30 -32 82 85 88 91 94 105 0
34 56 -607 0
-34 35 -166 169 0
166 -169 0
-113 -171 0
-120 -171 0
-127 -171 0
-14 15 -105 -171 0
-155 -171 0
-162 -171 0
-169 -171 0
-23 50 -601 0
-74 -158 -240 -625 0
2 -39 -590 0
31 -158 162 0
-158 -162 -240 -255 0
-1 -39 -590 0
27 -151 155 0
29 -151 -155 -255 0
49 94 105 -600 0
-5 -181 0
-49 -94 -600 0
22 -226 0
2 -181 0
113 171 -181 0
-1 105 -113 0
21 -91 -171 217 0
-6 9 -105 -171 190 0
18 -217 0
47 91 105 -598 0
9 63 -82 -614 0
-15 -23 91 105 113 120 127 155 162 169 171 0
-47 -91 -598 0
14 -19 94 105 113 120 127 155 162 169 171 0
14 18 94 105 113 120 127 155 162 169 171 0
6 -63 -614 0
26 -105 150 0
120 171 -190 0
-6 9 63 -105 -614 0
-41 -105 -592 0
-10 13 -105 -171 199 0
-45 -88 -596 0
17 -88 -171 208 0
14 -208 0
45 88 105 -596 0
43 85 105 -594 0
-10 13 -65 -105 -616 0
-1 26 30 34 82 85 88 91 94 105 0
13 -85 -127 199 0
127 171 -199 0
-43 -105 -594 0
10 -199 0
88 91 94 105 113 120 127 155 162 169 171 0
41 82 105 -592 0
9 -82 -120 190 0
-19 88 94 105 113 120 127 155 162 169 171 0
-41 -82 -592 0
-43 -85 -594 0
6 -190 0
-14 17 -67 -105 -618 0
18 22 88 105 113 120 127 155 162 169 171 0
-23 88 91 105 113 120 127 155 162 169 171 0
-19 -23 88 105 113 120 127 155 162 169 171 0
15 -88 -171 0
14 18 -23 113 120 127 155 162 169 171 0
18 69 -620 0
-18 21 -69 -105 -620 0
-18 19 21 -105 217 0
14 91 94 105 113 120 127 155 162 169 171 0
14 -19 22 113 120 127 155 162 169 171 0
-22 23 25 -105 226 0
22 71 -622 0
-22 25 -71 -105 -622 0
-19 48 -599 0
-23 171 -226 0
-15 171 -208 0
29 -151 -171 -255 0
155 169 171 181 190 199 208 217 226 240 255 0
155 157 158 169 171 181 190 199 208 217 226 255 0
26 166 181 190 199 208 217 226 240 255 0
-29 169 171 181 190 199 208 217 226 240 255 0
150 151 169 171 181 190 199 208 217 226 240 255 0
26 181 190 199 208 217 226 240 249 255 0
26 157 158 169 171 181 190 199 208 217 226 255 0
155 162 171 181 190 199 208 217 226 249 255 0
150 151 166 181 190 199 208 217 226 240 255 0
-26 29 -150 -171 -255 0
150 151 162 171 181 190 199 208 217 226 249 255 0
26 169 171 181 190 199 208 217 226 240 255 0
26 157 158 181 190 199 208 217 226 249 255 0
-158 -171 -240 -255 0
26 157 158 166 181 190 199 208 217 226 255 0
150 151 157 158 169 171 181 190 199 208 217 226 255 0
26 162 171 181 190 199 208 217 226 249 255 0
-33 -240 0
30 -240 0
-29 157 158 181 190 199 208 217 226 249 255 0
-157 -162 -240 -255 0
150 151 157 158 181 190 199 208 217 226 249 255 0
155 162 169 171 181 190 199 208 217 226 255 0
-166 -171 -249 -255 0
26 162 169 171 181 190 199 208 217 226 255 0
26 162 166 171 181 190 199 208 217 226 255 0
-169 -249 -255 0
-29 166 181 190 199 208 217 226 240 255 0
-29 181 190 199 208 217 226 240 249 255 0
-29 157 158 169 171 181 190 199 208 217 226 255 0
-36 -249 0
34 -249 0
-25 76 -77 166 587 588 589 590 591 592 593 594 595 596 597 598 599 600 601 602 603 604 605 606 607 608 609 610 611 612 613 614 615 616 617 618 619 620 621 622 623 624 625 626 0
25 -76 77 -166 -249 587 588 589 590 591 592 593 594 595 596 597 598 599 600 601 602 603 604 605 606 607 608 609 610 611 612 613 614 615 616 617 618 619 620 621 622 623 624 625 626 0
-25 76 -77 249 587 588 589 590 591 592 593 594 595 596 597 598 599 600 601 602 603 604 605 606 607 608 609 610 611 612 613 614 615 616 617 618 619 620 621 622 623 624 625 626 0
25 76 77 166 587 588 589 590 591 592 593 594 595 596 597 598 599 600 601 602 603 604 605 606 607 608 609 610 611 612 613 614 615 616 617 618 619 620 621 622 623 624 625 626 0
-29 162 171 181 190 199 208 217 226 249 255 0
-181 -255 0
-190 -255 0
-199 -255 0
-208 -255 0
-217 -255 0
-226 -255 0
-157 -171 -240 -255 0
150 151 162 169 171 181 190 199 208 217 226 255 0
74 240 -625 0
150 151 157 158 166 181 190 199 208 217 226 255 0
1 -2 3 5 266 0
-1 105 -266 0
1 -2 -171 -255 266 0
-3 171 -266 0
-2 5 -105 -171 266 0
-2 3 5 -105 266 0
-5 255 -266 0
2 -266 0
-1 105 -408 0
1 -2 5 -171 266 0
-2 5 -105 -356 408 0
-2 -105 -171 -255 266 0
4 -6 7 9 275 0
-4 105 -275 0
4 -6 -171 -255 275 0
-7 171 -275 0
-6 9 -105 -171 275 0
-6 7 9 -105 275 0
-9 255 -275 0
-29 162 169 171 181 190 199 208 217 226 255 0
-4 105 -417 0
4 -6 9 -171 275 0
-6 9 -105 -356 417 0
6 -275 0
-6 -105 -171 -255 275 0
8 -10 11 13 283 0
-8 105 -283 0
8 -10 -171 -255 283 0
-11 171 -283 0
-10 13 -105 -171 283 0
-10 11 13 -105 283 0
-13 255 -283 0
-8 105 -425 0
8 -10 13 -171 283 0
-10 13 -105 -356 425 0
10 -283 0
-10 -105 -171 -255 283 0
12 -14 15 17 291 0
-12 105 -291 0
12 -14 -171 -255 291 0
-15 171 -291 0
-14 17 -105 -171 291 0
-14 15 17 -105 291 0
-17 255 -291 0
-12 105 -433 0
12 -14 17 -171 291 0
-14 17 -105 -356 433 0
14 -291 0
-14 -105 -171 -255 291 0
16 -18 19 21 299 0
-16 105 -299 0
16 -18 -171 -255 299 0
-19 171 -299 0
-18 21 -105 -171 299 0
-18 19 21 -105 299 0
-21 255 -299 0
-16 105 -441 0
16 -18 21 -171 299 0
-18 21 -105 -356 441 0
18 -299 0
-18 -105 -171 -255 299 0
20 -22 23 25 307 0
-20 105 -307 0
20 -22 -171 -255 307 0
-23 171 -307 0
-22 25 -105 -171 307 0
-22 23 25 -105 307 0
-25 255 -307 0
-20 105 -447 0
20 -22 25 -171 307 0
-22 -105 -356 -366 447 0
22 -307 0
-22 -105 -171 -255 307 0
24 -26 27 29 315 0
-24 105 -315 0
24 -26 -171 -255 315 0
-27 171 -315 0
-26 29 -105 -171 315 0
-26 27 29 -105 315 0
-29 255 -315 0
-24 105 -455 0
24 -26 29 -171 315 0
-26 29 -105 -356 455 0
26 -315 0
-26 -105 -171 -255 315 0
28 -30 31 33 323 0
-28 105 -323 0
28 -30 -171 -255 323 0
-31 171 -323 0
-30 33 -105 -171 323 0
-30 31 33 -105 323 0
-33 255 -323 0
-28 105 -463 0
28 -30 33 -171 323 0
-30 33 -105 -356 463 0
30 -323 0
-30 -105 -171 -255 323 0
32 -34 -171 -255 -333 0
-35 171 275 283 291 299 307 315 323 333 0
-34 35 36 -105 -333 0
-36 255 275 283 291 299 307 315 323 333 0
-34 36 -105 -171 -333 0
-34 35 -105 -333 367 408 -587 0
-34 35 -105 -255 -333 0
34 275 283 291 299 307 315 323 333 0
32 -34 35 -333 367 408 -587 0
-275 -333 0
-283 -333 0
-291 -333 0
-299 -333 0
-307 -333 0
-315 -333 0
-323 -333 0
32 -34 36 -171 -333 0
-34 -105 -171 -255 -333 0
-266 408 -463 -587 0
266 333 -408 -587 0
275 -283 351 0
283 -291 -351 0
275 283 -417 -587 0
275 283 291 299 -425 -587 0
275 283 291 299 -433 -587 0
-283 417 425 433 441 -587 0
291 299 -307 -486 -587 0
283 299 -307 -351 0
275 283 -299 486 -587 0
275 283 291 299 -441 -587 0
-283 -486 -587 0
275 291 -299 -315 351 0
275 283 307 315 486 -587 0
-275 -486 -587 0
275 291 307 -315 351 0
275 291 307 323 351 0
283 315 -323 -351 0
275 291 -299 323 351 0
291 299 -315 -486 -587 0
-275 -351 0
-15 18 -23 113 120 127 155 162 169 171 0
-15 18 22 113 120 127 155 162 169 171 0
4 -6 82 0
8 -10 85 0
12 -14 88 0
16 -18 91 0
20 -22 94 0
-1 26 -28 -32 82 85 88 91 94 105 0
-1 -24 30 34 82 85 88 91 94 105 0
30 -158 0
-2 5 -105 -171 181 0
-2 3 -105 -255 266 0
-2 3 5 -105 408 0
-3 356 -408 0
1 -2 -356 367 408 0
-2 3 -105 367 408 0
-5 -367 -408 0
-2 -105 -356 367 408 0
2 -408 0
1 -2 5 -356 408 0
1 -2 3 5 408 0
1 -2 3 367 408 0
1 -2 3 -255 266 0
-6 7 -105 -255 275 0
-6 7 9 -105 417 0
-7 356 -417 0
4 -6 -356 367 417 0
-6 7 -105 367 417 0
-9 -367 -417 0
-6 -105 -356 367 417 0
4 -6 9 -356 417 0
4 -6 7 9 417 0
4 -6 7 367 417 0
6 -417 0
4 -6 7 -255 275 0
-10 11 -105 -255 283 0
-10 11 13 -105 425 0
-11 356 -425 0
8 -10 -356 367 425 0
-10 11 -105 367 425 0
-13 -367 -425 0
-10 -105 -356 367 425 0
8 -10 13 -356 425 0
8 -10 11 13 425 0
8 -10 11 367 425 0
10 -425 0
8 -10 11 -255 283 0
-14 15 -105 -255 291 0
-14 15 17 -105 433 0
-15 356 -433 0
12 -14 -356 367 433 0
-14 15 -105 367 433 0
-17 -367 -433 0
-14 -105 -356 367 433 0
12 -14 17 -356 433 0
12 -14 15 17 433 0
12 -14 15 367 433 0
14 -433 0
12 -14 15 -255 291 0
-18 19 -105 -255 299 0
-18 19 21 -105 441 0
-19 356 -441 0
16 -18 -356 367 441 0
-18 19 -105 367 441 0
-21 -367 -441 0
-18 -105 -356 367 441 0
16 -18 21 -356 441 0
16 -18 19 21 441 0
16 -18 19 367 441 0
18 -441 0
16 -18 19 -255 299 0
-22 23 -105 -255 307 0
-22 23 -105 -366 447 0
-23 356 -447 0
20 -22 -356 -366 447 0
20 -22 23 -366 447 0
366 -447 0
22 -447 0
20 -22 23 -255 307 0
-26 27 -105 -255 315 0
-26 27 29 -105 455 0
-27 356 -455 0
24 -26 -356 367 455 0
-26 27 -105 367 455 0
-29 -367 -455 0
-26 -105 -356 367 455 0
24 -26 29 -356 455 0
24 -26 27 29 455 0
24 -26 27 367 455 0
26 -455 0
24 -26 27 -255 315 0
-30 31 -105 -255 323 0
-30 31 33 -105 463 0
-31 356 -463 0
28 -30 -356 367 463 0
-30 31 -105 367 463 0
-33 -367 -463 0
-30 -105 -356 367 463 0
28 -30 33 -356 463 0
28 -30 31 33 463 0
28 -30 31 367 463 0
30 -463 0
28 -30 31 -255 323 0
-105 -266 367 408 -587 0
32 -34 35 36 -266 408 0
-35 266 333 356 417 425 433 441 447 455 463 -587 0
-34 35 36 -105 -266 408 0
-36 266 333 -367 417 425 433 441 447 455 463 -587 0
32 -34 36 -333 -356 -587 0
-32 105 275 283 291 299 307 315 323 333 0
34 266 333 417 425 433 441 447 455 463 -587 0
-266 408 -433 -587 0
-266 408 -441 -587 0
-266 408 -447 -587 0
-266 408 -417 -587 0
32 -34 35 -255 -333 0
32 -34 35 36 -333 0
351 417 -425 -587 0
417 425 447 455 486 0
433 441 -447 -486 0
-351 425 441 -447 -587 0
351 417 433 -441 463 -587 0
-15 18 94 105 113 120 127 155 162 169 171 0
-15 -19 -23 113 120 127 155 162 169 171 0
433 441 -455 -486 0
417 425 -433 486 0
-417 -486 0
-425 -486 0
351 417 433 -441 -455 -587 0
417 425 -441 486 0
275 283 -291 486 -587 0
-351 425 455 -463 -587 0
-351 425 -433 -587 0
351 417 433 447 -455 -587 0
-3 40 -591 0
3 -40 353 -591 0
2 26 30 -32 82 85 88 91 94 105 0
2 26 -28 -32 82 85 88 91 94 105 0
9 -82 -171 190 0
2 26 30 34 82 85 88 91 94 105 0
13 -85 -171 199 0
-15 91 94 105 113 120 127 155 162 169 171 0
2 -24 -28 -32 82 85 88 91 94 105 0
24 -26 -150 0
2 -24 -28 34 82 85 88 91 94 105 0
28 -30 -157 0
-5 -61 -612 0
-299 417 425 433 441 -587 0
-61 358 -612 0
5 61 353 -358 -612 0
-9 -63 -614 0
-13 65 -616 0
66 -355 -361 -617 0
-66 355 -361 -617 0
-291 417 425 433 441 -587 0
66 355 361 -617 0
-66 -355 361 -617 0
-17 67 -618 0
68 -355 -362 -619 0
-68 355 -362 -619 0
68 355 362 -619 0
-68 -355 362 -619 0
-333 -433 -587 0
-333 -441 -587 0
-21 69 -620 0
70 -355 -363 -621 0
-70 355 -363 -621 0
-34 -266 367 408 -587 0
70 355 363 -621 0
-70 -355 363 -621 0
-333 408 -447 -587 0
-32 105 333 417 425 433 441 447 455 463 -587 0
-25 71 -622 0
73 -355 -364 -624 0
-73 355 -364 -624 0
73 355 364 -624 0
-73 -355 364 -624 0
-30 33 240 0
155 162 166 171 181 190 199 208 217 226 255 0
75 -355 -365 -626 0
-75 355 -365 -626 0
75 355 365 -626 0
-75 -355 365 -626 0
-34 36 249 0
155 171 181 190 199 208 217 226 240 249 255 0
171 -356 -587 0
-171 356 -587 0
255 -368 -587 0
-255 368 -587 0
-266 408 -455 -587 0
-266 408 -425 -587 0
-275 417 425 433 441 -587 0
351 417 433 447 463 -587 0
-15 -19 22 113 120 127 155 162 169 171 0
-351 -417 -587 0
-2 -37 -588 0
2 37 -588 0
-38 105 -589 0
38 -105 -589 0
5 -113 181 0
1 -2 5 -171 181 0
1 -2 3 113 0
-15 -19 94 105 113 120 127 155 162 169 171 0
40 -353 -591 0
9 -105 -120 190 0
82 105 -120 0
30 -105 157 0
2 -24 30 34 82 85 88 91 94 105 0
6 -120 0
-6 7 -42 -593 0
-7 42 -593 0
-7 -120 0
13 -105 -127 199 0
85 105 -127 0
-1 26 -28 34 82 85 88 91 94 105 0
2 26 -28 34 82 85 88 91 94 105 0
10 -127 0
-10 11 -44 -595 0
-11 44 -595 0
-11 -127 0
-14 17 -105 -171 208 0
-45 -105 -596 0
-19 22 88 105 113 120 127 155 162 169 171 0
18 88 94 105 113 120 127 155 162 169 171 0
-14 15 17 -105 208 0
14 -19 -23 113 120 127 155 162 169 171 0
-18 21 -105 -171 217 0
-47 -105 -598 0
-15 46 -597 0
21 -69 -91 -620 0
-22 25 -105 -171 226 0
-49 -105 -600 0
14 22 91 105 113 120 127 155 162 169 171 0
25 -71 -94 -622 0
29 -150 -155 -255 0
-26 27 -150 155 0
51 150 151 -602 0
150 151 181 190 199 208 217 226 240 249 255 0
26 -155 0
-26 27 -52 -603 0
-27 52 -603 0
-27 -155 0
-74 -157 -240 -625 0
53 157 158 -604 0
74 157 158 -625 0
30 -162 0
-30 31 -54 -605 0
-31 54 -605 0
-31 -162 0
-55 -166 -606 0
55 166 -606 0
34 -169 0
-34 35 -56 -607 0
-35 56 -607 0
-35 -169 0
-29 -57 -608 0
29 57 -608 0
26 -58 -609 0
-26 58 -609 0
-59 -355 -610 0
59 355 -610 0
-60 -357 -611 0
60 357 -611 0
-61 -353 -612 0
-62 -359 -613 0
62 359 -613 0
-9 -190 0
26 -151 0
-64 -360 -615 0
64 360 -615 0
-1 26 30 -32 82 85 88 91 94 105 0
13 -65 -85 -616 0
10 65 -616 0
-13 -199 0
18 -23 88 105 113 120 127 155 162 169 171 0
67 88 105 -618 0
14 67 -618 0
-17 -208 0
-333 -463 -587 0
69 91 105 -620 0
-21 -217 0
-333 -455 -587 0
71 94 105 -622 0
-25 -226 0
-72 -354 -623 0
72 354 -623 0
-30 31 -157 162 0
155 157 158 171 181 190 199 208 217 226 249 255 0
-25 -76 -77 -166 -249 587 588 589 590 591 592 593 594 595 596 597 598 599 600 601 602 603 604 605 606 607 608 609 610 611 612 613 614 615 616 617 618 619 620 621 622 623 624 625 626 0
25 76 77 249 587 588 589 590 591 592 593 594 595 596 597 598 599 600 601 602 603 604 605 606 607 608 609 610 611 612 613 614 615 616 617 618 619 620 621 622 623 624 625 626 0
-29 157 158 166 181 190 199 208 217 226 255 0
